1 -1 -2 0
1 -1 -3 0
1 -1 4 0
1 1 5 0
1 2 -6 0
1 2 -1 0
1 2 5 0
1 7 -8 0
1 7 -9 0
1 -7 10 0
1 7 11 0
1 -7 12 0
1 7 -13 0
1 -7 5 0
1 -10 -9 0
1 10 -14 0
1 10 15 0
1 10 13 0
1 -10 5 0
1 4 -16 0
1 4 -17 0
1 -4 -18 0
1 -4 -10 0
1 4 -19 0
1 -4 20 0
1 5 -17 0
1 5 10 0
1 -5 2 0
1 -5 19 0
1 -5 20 0
1 -5 7 0
1 -5 1 0
1 3 21 0
1 -3 -22 0
1 -3 10 0
1 3 -2 0
1 3 23 0
1 3 -19 0
1 3 -24 0
1 3 -7 0
1 -3 -1 0
1 -3 13 0
1 13 21 0
1 13 -22 0
1 13 -2 0
1 13 -19 0
1 13 1 0
1 -13 -25 0
1 -26 -18 0
1 26 4 0
1 -18 -8 0
1 18 -9 0
1 -18 4 0
1 -18 11 0
1 18 5 0
1 -20 8 0
1 -20 4 0
1 20 15 0
1 -20 11 0
1 20 -27 0
1 17 8 0
1 -17 9 0
1 17 28 0
1 -17 -29 0
1 17 15 0
1 17 -11 0
1 -17 30 0
1 -17 5 0
1 -11 -31 0
1 -11 9 0
1 11 17 0
1 -11 18 0
1 11 10 0
1 11 -32 0
1 11 -7 0
1 -11 33 0
1 -9 -34 0
1 -9 17 0
1 -9 18 0
1 -9 -32 0
1 9 -35 0
1 -9 11 0
1 9 -26 0
1 -9 7 0
1 -9 33 0
1 15 16 0
1 -15 36 0
1 -15 -37 0
1 -15 19 0
1 -15 -26 0
1 8 38 0
1 -8 -18 0
1 8 37 0
1 8 7 0
1 8 33 0
1 -35 -29 0
1 -35 -11 0
1 -35 19 0
1 35 39 0
1 -35 -30 0
1 40 28 0
1 -40 35 0
1 40 39 0
1 40 -30 0
1 -32 37 0
1 -32 -11 0
1 32 39 0
1 32 30 0
1 31 28 0
1 -31 29 0
1 31 11 0
1 -31 -30 0
1 -30 41 0
1 30 32 0
1 -30 20 0
1 29 -31 0
1 -29 -40 0
1 29 -17 0
1 29 41 0
1 29 -35 0
1 29 30 0
1 -29 42 0
1 39 31 0
1 39 -17 0
1 -39 28 0
1 39 -43 0
1 39 36 0
1 39 32 0
1 39 35 0
1 -39 20 0
1 -39 33 0
1 -28 -31 0
1 -28 -40 0
1 -28 43 0
1 28 36 0
1 28 -35 0
1 28 20 0
1 28 -33 0
1 -44 -45 0
1 -44 -46 0
1 44 -1 0
1 6 -47 0
1 6 -46 0
1 -6 -44 0
1 -12 48 0
1 12 -45 0
1 12 49 0
1 12 -47 0
1 12 46 0
1 -12 50 0
1 12 -51 0
1 12 7 0
1 14 -48 0
1 -14 -49 0
1 -14 -10 0
1 -14 47 0
1 14 -46 0
1 -14 50 0
1 -14 -51 0
1 45 -21 0
1 45 22 0
1 45 -14 0
1 -45 27 0
1 45 -24 0
1 45 -12 0
1 45 -44 0
1 -46 -45 0
1 46 -6 0
1 -46 -44 0
1 -48 -14 0
1 48 -6 0
1 -48 -47 0
1 -48 -12 0
1 47 48 0
1 -47 14 0
1 -24 -45 0
1 24 -52 0
1 24 -22 0
1 -24 -49 0
1 24 3 0
1 -24 51 0
1 -24 -26 0
1 -22 45 0
1 22 -52 0
1 22 3 0
1 22 46 0
1 22 -24 0
1 22 13 0
1 27 -45 0
1 27 52 0
1 27 -53 0
1 -27 -3 0
1 -27 -20 0
1 27 -54 0
1 -27 55 0
1 -21 -45 0
1 -21 17 0
1 21 -56 0
1 21 3 0
1 -21 46 0
1 21 -50 0
1 -21 27 0
1 21 -54 0
1 49 51 0
1 -49 38 0
1 -49 16 0
1 -49 -22 0
1 49 57 0
1 49 14 0
1 49 58 0
1 49 37 0
1 49 -19 0
1 -49 -27 0
1 51 -59 0
1 51 -16 0
1 51 21 0
1 51 -22 0
1 -51 58 0
1 51 37 0
1 51 60 0
1 -51 24 0
1 52 59 0
1 -52 -21 0
1 52 -61 0
1 -52 22 0
1 52 14 0
1 52 -58 0
1 52 24 0
1 -52 -12 0
1 50 59 0
1 50 21 0
1 50 -52 0
1 -50 -22 0
1 50 14 0
1 50 -27 0
1 -50 -62 0
1 -19 8 0
1 -19 16 0
1 19 49 0
1 19 56 0
1 19 53 0
1 19 4 0
1 -19 35 0
1 -19 54 0
1 19 5 0
1 -16 8 0
1 16 40 0
1 -16 -56 0
1 -16 -53 0
1 16 4 0
1 16 19 0
1 -16 -51 0
1 -16 -54 0
1 16 5 0
1 -37 -8 0
1 -37 23 0
1 37 63 0
1 37 -15 0
1 37 54 0
1 37 -55 0
1 37 -25 0
1 -38 31 0
1 38 -56 0
1 -38 -53 0
1 38 23 0
1 -38 -63 0
1 -38 -51 0
1 38 -55 0
1 38 25 0
1 -53 -38 0
1 53 16 0
1 53 43 0
1 53 -64 0
1 -53 37 0
1 -53 19 0
1 -53 -55 0
1 53 65 0
1 -53 33 0
1 -55 16 0
1 55 53 0
1 -55 -66 0
1 55 43 0
1 -55 -36 0
1 55 -67 0
1 -55 -37 0
1 -55 -19 0
1 55 27 0
1 55 33 0
1 -56 59 0
1 56 -16 0
1 56 21 0
1 56 -68 0
1 -56 69 0
1 56 58 0
1 -56 -27 0
1 -56 54 0
1 54 59 0
1 54 38 0
1 -54 21 0
1 -54 -56 0
1 -54 -66 0
1 -54 69 0
1 -54 -19 0
1 -54 -65 0
1 54 70 0
1 36 8 0
1 -36 -23 0
1 36 58 0
1 36 -15 0
1 36 63 0
1 36 -11 0
1 36 55 0
1 36 25 0
1 33 -59 0
1 33 -71 0
1 33 9 0
1 -33 -36 0
1 33 -15 0
1 33 11 0
1 33 -39 0
1 -33 55 0
1 43 -71 0
1 -43 72 0
1 -43 34 0
1 43 -28 0
1 -43 -69 0
1 -43 23 0
1 -43 -63 0
1 -43 39 0
1 43 25 0
1 -73 -71 0
1 -73 28 0
1 73 -43 0
1 -73 -23 0
1 73 -63 0
1 73 -74 0
1 73 39 0
1 -73 25 0
1 -73 -70 0
1 -63 -71 0
1 -63 -75 0
1 -63 41 0
1 63 43 0
1 -63 37 0
1 63 76 0
1 63 42 0
1 63 33 0
1 -71 -38 0
1 -71 -75 0
1 71 77 0
1 -71 -41 0
1 71 -43 0
1 -71 36 0
1 -71 -37 0
1 71 -5 0
1 71 76 0
1 -71 -78 0
1 -71 42 0
1 23 -38 0
1 23 -75 0
1 23 79 0
1 23 43 0
1 23 -3 0
1 -23 37 0
1 23 76 0
1 23 80 0
1 23 -73 0
1 23 -33 0
1 25 75 0
1 25 79 0
1 -25 66 0
1 25 -43 0
1 25 -37 0
1 -25 13 0
1 25 76 0
1 -25 80 0
1 25 65 0
1 25 -73 0
1 -41 -72 0
1 -41 -28 0
1 41 34 0
1 41 66 0
1 41 -63 0
1 41 -81 0
1 41 74 0
1 41 42 0
1 42 -71 0
1 42 -72 0
1 -42 -28 0
1 42 29 0
1 -42 81 0
1 42 39 0
1 42 30 0
1 -42 -65 0
1 -77 34 0
1 77 -82 0
1 -77 -63 0
1 77 -81 0
1 -77 83 0
1 78 -71 0
1 78 -34 0
1 -78 -77 0
1 -78 -63 0
1 78 81 0
1 78 74 0
1 78 84 0
1 -78 80 0
1 74 -34 0
1 -74 85 0
1 74 77 0
1 -74 -43 0
1 -74 86 0
1 -74 87 0
1 -74 -42 0
1 34 9 0
1 -34 -88 0
1 34 85 0
1 -34 43 0
1 -34 -86 0
1 34 74 0
1 -34 -87 0
1 34 -78 0
1 34 42 0
1 81 89 0
1 -81 -77 0
1 81 -41 0
1 81 43 0
1 -81 15 0
1 81 -78 0
1 -72 89 0
1 72 -75 0
1 72 -77 0
1 -72 43 0
1 72 -81 0
1 72 78 0
1 -72 -73 0
1 -85 -84 0
1 -85 -74 0
1 -87 -34 0
1 87 82 0
1 87 -90 0
1 87 -76 0
1 -88 -34 0
1 -88 89 0
1 -88 -86 0
1 -88 -83 0
1 -86 -34 0
1 -86 82 0
1 86 -90 0
1 86 74 0
1 -83 -88 0
1 83 -90 0
1 -83 77 0
1 -83 -86 0
1 -83 87 0
1 -83 30 0
1 -83 78 0
1 -90 88 0
1 90 -29 0
1 90 85 0
1 -90 -77 0
1 -84 88 0
1 -84 77 0
1 -84 -86 0
1 -84 -39 0
1 -82 -77 0
1 58 59 0
1 -58 91 0
1 58 -92 0
1 -58 -49 0
1 58 -93 0
1 58 -94 0
1 -58 -51 0
1 58 54 0
1 -59 -91 0
1 -59 -52 0
1 -59 -49 0
1 -59 56 0
1 59 58 0
1 59 -50 0
1 -59 54 0
1 -59 33 0
1 69 -91 0
1 -69 -61 0
1 -69 -56 0
1 69 43 0
1 69 -93 0
1 -69 -94 0
1 69 62 0
1 70 91 0
1 70 -92 0
1 70 -56 0
1 70 94 0
1 70 62 0
1 70 -54 0
1 70 -73 0
1 -92 59 0
1 -92 79 0
1 -92 65 0
1 92 70 0
1 -94 -59 0
1 94 92 0
1 94 -69 0
1 94 -58 0
1 -94 46 0
1 -94 -80 0
1 -94 65 0
1 -91 48 0
1 -91 69 0
1 91 -58 0
1 -91 -93 0
1 93 59 0
1 93 69 0
1 93 -47 0
1 93 -70 0
1 -66 92 0
1 -66 61 0
1 -66 -57 0
1 -66 41 0
1 66 53 0
1 66 -23 0
1 66 -94 0
1 -66 -60 0
1 -66 54 0
1 -66 -55 0
1 66 25 0
1 65 92 0
1 65 61 0
1 -65 -57 0
1 65 -56 0
1 -65 66 0
1 65 23 0
1 -65 94 0
1 -65 60 0
1 65 -54 0
1 -65 -42 0
1 65 25 0
1 -79 61 0
1 79 -57 0
1 -79 -77 0
1 79 -68 0
1 79 -23 0
1 -79 94 0
1 -79 62 0
1 79 80 0
1 -80 61 0
1 80 -79 0
1 80 -64 0
1 80 62 0
1 -80 -67 0
1 80 -25 0
1 57 89 0
1 57 -66 0
1 -57 69 0
1 57 -95 0
1 57 80 0
1 -57 -70 0
1 -60 89 0
1 -60 -66 0
1 -60 -69 0
1 -60 51 0
1 60 -76 0
1 60 -80 0
1 -60 -65 0
1 61 -52 0
1 -61 -79 0
1 61 66 0
1 61 69 0
1 61 -80 0
1 61 65 0
1 -61 -70 0
1 62 79 0
1 -62 50 0
1 62 -80 0
1 -62 -65 0
1 -62 70 0
1 -75 -71 0
1 -75 72 0
1 -75 60 0
1 -75 57 0
1 75 23 0
1 75 63 0
1 -76 -68 0
1 -76 -81 0
1 -76 -60 0
1 76 -67 0
1 -89 88 0
1 89 57 0
1 89 64 0
1 -89 -60 0
1 89 -67 0
1 -95 -72 0
1 -95 -89 0
1 95 -57 0
1 95 68 0
1 -95 -86 0
1 95 -96 0
1 -64 -79 0
1 64 -53 0
1 -64 -76 0
1 67 -89 0
1 -67 79 0
1 67 95 0
1 67 80 0
1 67 55 0
1 -68 96 0
1 68 -75 0
1 68 56 0
1 -68 -79 0
1 68 -95 0
1 -68 -80 0
1 -96 -89 0
1 96 76 0
1 -96 -54 0
